unsat
(define-fun str_invariant ((top.usr.request_door Bool) (top.usr.warning_start Bool) (top.usr.in_station Bool) (top.usr.door_is_open Bool) (top.usr.OK Bool) (top.res.init_flag Bool) (top.impl.usr.open_door Bool) (top.impl.usr.close_door Bool) (top.impl.usr.door_ok Bool) (top.res.abs_0 Bool) (top.res.abs_1 Bool) (top.res.abs_2 Bool) (top.res.abs_3 Bool) (top.res.abs_4 Bool) (top.res.inst_36 Bool) (top.res.inst_35 Bool) (top.res.inst_34 Bool) (top.res.inst_33 Bool) (top.res.inst_32 Bool) (top.res.inst_31 Bool) (top.res.inst_30 Bool) (top.res.inst_29 Bool) (top.res.inst_28 Bool) (top.res.inst_27 Bool) (top.res.inst_26 Bool) (top.res.inst_25 Bool) (top.res.inst_24 Bool) (top.res.inst_23 Bool) (top.res.inst_22 Bool) (top.res.inst_21 Bool) (top.res.inst_20 Bool) (top.res.inst_19 Bool) (top.res.inst_18 Bool) (top.res.inst_17 Bool) (top.res.inst_16 Bool) (top.res.inst_15 Bool) (top.res.inst_14 Bool) (top.res.inst_13 Bool) (top.res.inst_12 Bool) (top.res.inst_11 Bool) (top.res.inst_10 Bool) (top.res.inst_9 Bool) (top.res.inst_8 Bool) (top.res.inst_7 Bool) (top.res.inst_6 Bool) (top.res.inst_5 Bool) (top.res.inst_4 Bool) (top.res.inst_3 Bool) (top.res.inst_2 Bool) (top.res.inst_1 Bool) (top.res.inst_0 Bool)) Bool (and top.usr.OK (or (not top.usr.warning_start) (not top.res.abs_1))))
2.17user 0.02system 0:02.19elapsed 99%CPU (0avgtext+0avgdata 43260maxresident)k
0inputs+8outputs (0major+5567minor)pagefaults 0swaps
